\* Problem: SSCFLP *\

Minimize
 obj: + 260 x_1 + 239 x_2 + 418 x_3 + 557 x_4 + 346 x_5 + 161 x_6
 + 288 x_7 + 568 x_8 + 379 x_9 + 392 x_10 + 672 x_11 + 268 x_12
 + 122 x_13 + 295 x_14 + 344 x_15 + 143 x_16 + 393 x_17 + 29 x_18
 + 656 x_19 + 654 x_20 + 235 x_21 + 329 x_22 + 640 x_23 + 517 x_24
 + 329 x_25 + 524 x_26 + 318 x_27 + 516 x_28 + 79 x_29 + 414 x_30
 + 458 x_31 + 758 x_32 + 28 x_33 + 167 x_34 + 504 x_35 + 502 x_36
 + 475 x_37 + 226 x_38 + 94 x_39 + 422 x_40 + 303 x_41 + 139 x_42
 + 362 x_43 + 519 x_44 + 494 x_45 + 88 x_46 + 468 x_47 + 72 x_48
 + 370 x_49 + 68 x_50 + 580 x_51 + 484 x_52 + 34 x_53 + 386 x_54
 + 180 x_55 + 522 x_56 + 338 x_57 + 636 x_58 + 523 x_59 + 28 x_60
 + 646 x_61 + 652 x_62 + 319 x_63 + 423 x_64 + 712 x_65 + 242 x_66
 + 486 x_67 + 401 x_68 + 551 x_69 + 812 x_70 + 155 x_71 + 585 x_72
 + 482 x_73 + 604 x_74 + 200 x_75 + 284 x_76 + 80 x_77 + 195 x_78
 + 426 x_79 + 107 x_80 + 387 x_81 + 516 x_82 + 374 x_83 + 234 x_84
 + 495 x_85 + 584 x_86 + 612 x_87 + 239 x_88 + 392 x_89 + 507 x_90
 + 145 x_91 + 459 x_92 + 104 x_93 + 286 x_94 + 701 x_95 + 463 x_96
 + 467 x_97 + 349 x_98 + 574 x_99 + 344 x_100 + 335 x_101 + 212 x_102
 + 369 x_103 + 258 x_104 + 455 x_105 + 348 x_106 + 33 x_107 + 302 x_108
 + 181 x_109 + 329 x_110 + 363 x_111 + 504 x_112 + 376 x_113 + 99 x_114
 + 502 x_115 + 262 x_116 + 140 x_117 + 310 x_118 + 335 x_119 + 466 x_120
 + 249 x_121 + 285 x_122 + 328 x_123 + 263 x_124 + 149 x_125 + 274 x_126
 + 345 x_127 + 337 x_128 + 288 x_129 + 284 x_130 + 140 x_131 + 467 x_132
 + 338 x_133 + 215 x_134 + 192 x_135 + 243 x_136 + 267 x_137 + 403 x_138
 + 244 x_139 + 162 x_140 + 202 x_141 + 270 x_142 + 411 x_143 + 267 x_144
 + 364 x_145 + 400 x_146 + 156 x_147 + 356 x_148 + 248 x_149 + 348 x_150
 + 415 x_151 + 347 x_152 + 240 x_153 + 474 x_154 + 179 x_155 + 336 x_156
 + 281 x_157 + 603 x_158 + 442 x_159 + 219 x_160 + 666 x_161 + 451 x_162
 + 117 x_163 + 338 x_164 + 525 x_165 + 59 x_166 + 428 x_167 + 205 x_168
 + 611 x_169 + 738 x_170 + 84 x_171 + 451 x_172 + 569 x_173 + 559 x_174
 + 229 x_175 + 409 x_176 + 135 x_177 + 367 x_178 + 241 x_179 + 261 x_180
 + 414 x_181 + 653 x_182 + 170 x_183 + 94 x_184 + 496 x_185 + 540 x_186
 + 541 x_187 + 97 x_188 + 218 x_189 + 456 x_190 + 174 x_191 + 286 x_192
 + 180 x_193 + 406 x_194 + 598 x_195 + 258 x_196 + 461 x_197 + 142 x_198
 + 466 x_199 + 138 x_200 + 363 x_201 + 276 x_202 + 603 x_203 + 349 x_204
 + 694 x_205 + 441 x_206 + 258 x_207 + 73 x_208 + 120 x_209 + 564 x_210
 + 218 x_211 + 576 x_212 + 582 x_213 + 204 x_214 + 519 x_215 + 484 x_216
 + 108 x_217 + 474 x_218 + 294 x_219 + 237 x_220 + 487 x_221 + 256 x_222
 + 354 x_223 + 23 x_224 + 383 x_225 + 432 x_226 + 586 x_227 + 532 x_228
 + 432 x_229 + 508 x_230 + 235 x_231 + 524 x_232 + 519 x_233 + 442 x_234
 + 138 x_235 + 9 x_236 + 72 x_237 + 631 x_238 + 402 x_239 + 80 x_240
 + 441 x_241 + 385 x_242 + 651 x_243 + 424 x_244 + 200 x_245 + 552 x_246
 + 141 x_247 + 550 x_248 + 179 x_249 + 543 x_250 + 624 x_251 + 507 x_252
 + 173 x_253 + 228 x_254 + 365 x_255 + 598 x_256 + 323 x_257 + 548 x_258
 + 489 x_259 + 157 x_260 + 516 x_261 + 746 x_262 + 464 x_263 + 410 x_264
 + 779 x_265 + 357 x_266 + 436 x_267 + 501 x_268 + 399 x_269 + 748 x_270
 + 268 x_271 + 594 x_272 + 317 x_273 + 529 x_274 + 184 x_275 + 113 x_276
 + 255 x_277 + 25 x_278 + 509 x_279 + 88 x_280 + 281 x_281 + 332 x_282
 + 492 x_283 + 326 x_284 + 394 x_285 + 510 x_286 + 559 x_287 + 408 x_288
 + 466 x_289 + 449 x_290 + 190 x_291 + 522 x_292 + 288 x_293 + 118 x_294
 + 671 x_295 + 580 x_296 + 375 x_297 + 480 x_298 + 560 x_299 + 474 x_300
 + 677 x_301 + 554 x_302 + 409 x_303 + 90 x_304 + 593 x_305 + 691 x_306
 + 374 x_307 + 436 x_308 + 467 x_309 + 387 x_310 + 340 x_311 + 847 x_312
 + 643 x_313 + 434 x_314 + 846 x_315 + 523 x_316 + 405 x_317 + 632 x_318
 + 200 x_319 + 648 x_320 + 451 x_321 + 610 x_322 + 104 x_323 + 440 x_324
 + 311 x_325 + 132 x_326 + 476 x_327 + 237 x_328 + 622 x_329 + 309 x_330
 + 222 x_331 + 124 x_332 + 642 x_333 + 479 x_334 + 293 x_335 + 425 x_336
 + 498 x_337 + 614 x_338 + 576 x_339 + 401 x_340 + 361 x_341 + 612 x_342
 + 519 x_343 + 132 x_344 + 626 x_345 + 720 x_346 + 297 x_347 + 644 x_348
 + 551 x_349 + 637 x_350 + 382 x_351 + 354 x_352 + 782 x_353 + 540 x_354
 + 850 x_355 + 490 x_356 + 422 x_357 + 186 x_358 + 240 x_359 + 742 x_360
 + 340 x_361 + 587 x_362 + 700 x_363 + 345 x_364 + 493 x_365 + 622 x_366
 + 274 x_367 + 567 x_368 + 458 x_369 + 61 x_370 + 646 x_371 + 276 x_372
 + 533 x_373 + 180 x_374 + 562 x_375 + 625 x_376 + 751 x_377 + 724 x_378
 + 518 x_379 + 693 x_380 + 428 x_381 + 702 x_382 + 620 x_383 + 586 x_384
 + 328 x_385 + 197 x_386 + 147 x_387 + 770 x_388 + 501 x_389 + 256 x_390
 + 614 x_391 + 460 x_392 + 817 x_393 + 617 x_394 + 113 x_395 + 627 x_396
 + 334 x_397 + 659 x_398 + 223 x_399 + 652 x_400 + 101 x_401 + 162 x_402
 + 566 x_403 + 607 x_404 + 519 x_405 + 14 x_406 + 320 x_407 + 505 x_408
 + 316 x_409 + 535 x_410 + 642 x_411 + 155 x_412 + 295 x_413 + 276 x_414
 + 180 x_415 + 296 x_416 + 356 x_417 + 148 x_418 + 664 x_419 + 538 x_420
 + 378 x_421 + 203 x_422 + 673 x_423 + 453 x_424 + 423 x_425 + 607 x_426
 + 477 x_427 + 630 x_428 + 108 x_429 + 539 x_430 + 485 x_431 + 816 x_432
 + 200 x_433 + 299 x_434 + 492 x_435 + 443 x_436 + 392 x_437 + 401 x_438
 + 142 x_439 + 380 x_440 + 422 x_441 + 83 x_442 + 528 x_443 + 600 x_444
 + 368 x_445 + 161 x_446 + 460 x_447 + 244 x_448 + 269 x_449 + 242 x_450
 + 567 x_451 + 462 x_452 + 603 x_453 + 240 x_454 + 746 x_455 + 628 x_456
 + 357 x_457 + 183 x_458 + 317 x_459 + 569 x_460 + 54 x_461 + 774 x_462
 + 701 x_463 + 355 x_464 + 730 x_465 + 585 x_466 + 268 x_467 + 626 x_468
 + 96 x_469 + 381 x_470 + 553 x_471 + 467 x_472 + 187 x_473 + 213 x_474
 + 412 x_475 + 354 x_476 + 626 x_477 + 474 x_478 + 595 x_479 + 496 x_480
 + 213 x_481 + 345 x_482 + 660 x_483 + 537 x_484 + 137 x_485 + 209 x_486
 + 289 x_487 + 718 x_488 + 555 x_489 + 245 x_490 + 478 x_491 + 559 x_492
 + 686 x_493 + 347 x_494 + 411 x_495 + 713 x_496 + 172 x_497 + 681 x_498
 + 392 x_499 + 673 x_500 + 366 x_501 + 314 x_502 + 504 x_503 + 504 x_504
 + 580 x_505 + 415 x_506 + 456 x_507 + 549 x_508 + 310 x_509 + 316 x_510

Subject To
 r_1: + 49 x_50 + 17 x_49 + 27 x_48 + 37 x_47 + 21 x_46 + 10 x_45
 + 42 x_44 + 19 x_43 + 13 x_42 + 25 x_41 + 21 x_40 + 38 x_39 + 20 x_38
 + 45 x_37 + 37 x_36 + 31 x_35 + 42 x_34 + 14 x_33 + 22 x_32 + 27 x_31
 + 13 x_30 + 20 x_29 + 26 x_28 + 28 x_27 + 32 x_26 + 24 x_25 + 34 x_24
 + 47 x_23 + 26 x_22 + 38 x_21 + 43 x_20 + 40 x_19 + 45 x_18 + 33 x_17
 + 39 x_16 + 23 x_15 + 44 x_14 + 14 x_13 + 31 x_12 + 16 x_11 + 31 x_10
 + 15 x_9 + 13 x_8 + 48 x_7 + 17 x_6 + 18 x_5 + 40 x_4 + 23 x_3 + 29 x_2
 + 49 x_1 - 258 x_501 <= 0
 r_2: + 49 x_100 + 17 x_99 + 27 x_98 + 37 x_97 + 21 x_96 + 10 x_95
 + 42 x_94 + 19 x_93 + 13 x_92 + 25 x_91 + 21 x_90 + 38 x_89 + 20 x_88
 + 45 x_87 + 37 x_86 + 31 x_85 + 42 x_84 + 14 x_83 + 22 x_82 + 27 x_81
 + 13 x_80 + 20 x_79 + 26 x_78 + 28 x_77 + 32 x_76 + 24 x_75 + 34 x_74
 + 47 x_73 + 26 x_72 + 38 x_71 + 43 x_70 + 40 x_69 + 45 x_68 + 33 x_67
 + 39 x_66 + 23 x_65 + 44 x_64 + 14 x_63 + 31 x_62 + 16 x_61 + 31 x_60
 + 15 x_59 + 13 x_58 + 48 x_57 + 17 x_56 + 18 x_55 + 40 x_54 + 23 x_53
 + 29 x_52 + 49 x_51 - 128 x_502 <= 0
 r_3: + 49 x_150 + 17 x_149 + 27 x_148 + 37 x_147 + 21 x_146 + 10 x_145
 + 42 x_144 + 19 x_143 + 13 x_142 + 25 x_141 + 21 x_140 + 38 x_139
 + 20 x_138 + 45 x_137 + 37 x_136 + 31 x_135 + 42 x_134 + 14 x_133
 + 22 x_132 + 27 x_131 + 13 x_130 + 20 x_129 + 26 x_128 + 28 x_127
 + 32 x_126 + 24 x_125 + 34 x_124 + 47 x_123 + 26 x_122 + 38 x_121
 + 43 x_120 + 40 x_119 + 45 x_118 + 33 x_117 + 39 x_116 + 23 x_115
 + 44 x_114 + 14 x_113 + 31 x_112 + 16 x_111 + 31 x_110 + 15 x_109
 + 13 x_108 + 48 x_107 + 17 x_106 + 18 x_105 + 40 x_104 + 23 x_103
 + 29 x_102 + 49 x_101 - 296 x_503 <= 0
 r_4: + 49 x_200 + 17 x_199 + 27 x_198 + 37 x_197 + 21 x_196 + 10 x_195
 + 42 x_194 + 19 x_193 + 13 x_192 + 25 x_191 + 21 x_190 + 38 x_189
 + 20 x_188 + 45 x_187 + 37 x_186 + 31 x_185 + 42 x_184 + 14 x_183
 + 22 x_182 + 27 x_181 + 13 x_180 + 20 x_179 + 26 x_178 + 28 x_177
 + 32 x_176 + 24 x_175 + 34 x_174 + 47 x_173 + 26 x_172 + 38 x_171
 + 43 x_170 + 40 x_169 + 45 x_168 + 33 x_167 + 39 x_166 + 23 x_165
 + 44 x_164 + 14 x_163 + 31 x_162 + 16 x_161 + 31 x_160 + 15 x_159
 + 13 x_158 + 48 x_157 + 17 x_156 + 18 x_155 + 40 x_154 + 23 x_153
 + 29 x_152 + 49 x_151 - 225 x_504 <= 0
 r_5: + 49 x_250 + 17 x_249 + 27 x_248 + 37 x_247 + 21 x_246 + 10 x_245
 + 42 x_244 + 19 x_243 + 13 x_242 + 25 x_241 + 21 x_240 + 38 x_239
 + 20 x_238 + 45 x_237 + 37 x_236 + 31 x_235 + 42 x_234 + 14 x_233
 + 22 x_232 + 27 x_231 + 13 x_230 + 20 x_229 + 26 x_228 + 28 x_227
 + 32 x_226 + 24 x_225 + 34 x_224 + 47 x_223 + 26 x_222 + 38 x_221
 + 43 x_220 + 40 x_219 + 45 x_218 + 33 x_217 + 39 x_216 + 23 x_215
 + 44 x_214 + 14 x_213 + 31 x_212 + 16 x_211 + 31 x_210 + 15 x_209
 + 13 x_208 + 48 x_207 + 17 x_206 + 18 x_205 + 40 x_204 + 23 x_203
 + 29 x_202 + 49 x_201 - 310 x_505 <= 0
 r_6: + 49 x_300 + 17 x_299 + 27 x_298 + 37 x_297 + 21 x_296 + 10 x_295
 + 42 x_294 + 19 x_293 + 13 x_292 + 25 x_291 + 21 x_290 + 38 x_289
 + 20 x_288 + 45 x_287 + 37 x_286 + 31 x_285 + 42 x_284 + 14 x_283
 + 22 x_282 + 27 x_281 + 13 x_280 + 20 x_279 + 26 x_278 + 28 x_277
 + 32 x_276 + 24 x_275 + 34 x_274 + 47 x_273 + 26 x_272 + 38 x_271
 + 43 x_270 + 40 x_269 + 45 x_268 + 33 x_267 + 39 x_266 + 23 x_265
 + 44 x_264 + 14 x_263 + 31 x_262 + 16 x_261 + 31 x_260 + 15 x_259
 + 13 x_258 + 48 x_257 + 17 x_256 + 18 x_255 + 40 x_254 + 23 x_253
 + 29 x_252 + 49 x_251 - 373 x_506 <= 0
 r_7: + 49 x_350 + 17 x_349 + 27 x_348 + 37 x_347 + 21 x_346 + 10 x_345
 + 42 x_344 + 19 x_343 + 13 x_342 + 25 x_341 + 21 x_340 + 38 x_339
 + 20 x_338 + 45 x_337 + 37 x_336 + 31 x_335 + 42 x_334 + 14 x_333
 + 22 x_332 + 27 x_331 + 13 x_330 + 20 x_329 + 26 x_328 + 28 x_327
 + 32 x_326 + 24 x_325 + 34 x_324 + 47 x_323 + 26 x_322 + 38 x_321
 + 43 x_320 + 40 x_319 + 45 x_318 + 33 x_317 + 39 x_316 + 23 x_315
 + 44 x_314 + 14 x_313 + 31 x_312 + 16 x_311 + 31 x_310 + 15 x_309
 + 13 x_308 + 48 x_307 + 17 x_306 + 18 x_305 + 40 x_304 + 23 x_303
 + 29 x_302 + 49 x_301 - 329 x_507 <= 0
 r_8: + 49 x_400 + 17 x_399 + 27 x_398 + 37 x_397 + 21 x_396 + 10 x_395
 + 42 x_394 + 19 x_393 + 13 x_392 + 25 x_391 + 21 x_390 + 38 x_389
 + 20 x_388 + 45 x_387 + 37 x_386 + 31 x_385 + 42 x_384 + 14 x_383
 + 22 x_382 + 27 x_381 + 13 x_380 + 20 x_379 + 26 x_378 + 28 x_377
 + 32 x_376 + 24 x_375 + 34 x_374 + 47 x_373 + 26 x_372 + 38 x_371
 + 43 x_370 + 40 x_369 + 45 x_368 + 33 x_367 + 39 x_366 + 23 x_365
 + 44 x_364 + 14 x_363 + 31 x_362 + 16 x_361 + 31 x_360 + 15 x_359
 + 13 x_358 + 48 x_357 + 17 x_356 + 18 x_355 + 40 x_354 + 23 x_353
 + 29 x_352 + 49 x_351 - 179 x_508 <= 0
 r_9: + 49 x_450 + 17 x_449 + 27 x_448 + 37 x_447 + 21 x_446 + 10 x_445
 + 42 x_444 + 19 x_443 + 13 x_442 + 25 x_441 + 21 x_440 + 38 x_439
 + 20 x_438 + 45 x_437 + 37 x_436 + 31 x_435 + 42 x_434 + 14 x_433
 + 22 x_432 + 27 x_431 + 13 x_430 + 20 x_429 + 26 x_428 + 28 x_427
 + 32 x_426 + 24 x_425 + 34 x_424 + 47 x_423 + 26 x_422 + 38 x_421
 + 43 x_420 + 40 x_419 + 45 x_418 + 33 x_417 + 39 x_416 + 23 x_415
 + 44 x_414 + 14 x_413 + 31 x_412 + 16 x_411 + 31 x_410 + 15 x_409
 + 13 x_408 + 48 x_407 + 17 x_406 + 18 x_405 + 40 x_404 + 23 x_403
 + 29 x_402 + 49 x_401 - 114 x_509 <= 0
 r_10: + 49 x_500 + 17 x_499 + 27 x_498 + 37 x_497 + 21 x_496 + 10 x_495
 + 42 x_494 + 19 x_493 + 13 x_492 + 25 x_491 + 21 x_490 + 38 x_489
 + 20 x_488 + 45 x_487 + 37 x_486 + 31 x_485 + 42 x_484 + 14 x_483
 + 22 x_482 + 27 x_481 + 13 x_480 + 20 x_479 + 26 x_478 + 28 x_477
 + 32 x_476 + 24 x_475 + 34 x_474 + 47 x_473 + 26 x_472 + 38 x_471
 + 43 x_470 + 40 x_469 + 45 x_468 + 33 x_467 + 39 x_466 + 23 x_465
 + 44 x_464 + 14 x_463 + 31 x_462 + 16 x_461 + 31 x_460 + 15 x_459
 + 13 x_458 + 48 x_457 + 17 x_456 + 18 x_455 + 40 x_454 + 23 x_453
 + 29 x_452 + 49 x_451 - 321 x_510 <= 0
 r_11: + x_451 + x_401 + x_351 + x_301 + x_251 + x_201 + x_151 + x_101
 + x_51 + x_1 = 1
 r_12: + x_452 + x_402 + x_352 + x_302 + x_252 + x_202 + x_152 + x_102
 + x_52 + x_2 = 1
 r_13: + x_453 + x_403 + x_353 + x_303 + x_253 + x_203 + x_153 + x_103
 + x_53 + x_3 = 1
 r_14: + x_454 + x_404 + x_354 + x_304 + x_254 + x_204 + x_154 + x_104
 + x_54 + x_4 = 1
 r_15: + x_455 + x_405 + x_355 + x_305 + x_255 + x_205 + x_155 + x_105
 + x_55 + x_5 = 1
 r_16: + x_456 + x_406 + x_356 + x_306 + x_256 + x_206 + x_156 + x_106
 + x_56 + x_6 = 1
 r_17: + x_457 + x_407 + x_357 + x_307 + x_257 + x_207 + x_157 + x_107
 + x_57 + x_7 = 1
 r_18: + x_458 + x_408 + x_358 + x_308 + x_258 + x_208 + x_158 + x_108
 + x_58 + x_8 = 1
 r_19: + x_459 + x_409 + x_359 + x_309 + x_259 + x_209 + x_159 + x_109
 + x_59 + x_9 = 1
 r_20: + x_460 + x_410 + x_360 + x_310 + x_260 + x_210 + x_160 + x_110
 + x_60 + x_10 = 1
 r_21: + x_461 + x_411 + x_361 + x_311 + x_261 + x_211 + x_161 + x_111
 + x_61 + x_11 = 1
 r_22: + x_462 + x_412 + x_362 + x_312 + x_262 + x_212 + x_162 + x_112
 + x_62 + x_12 = 1
 r_23: + x_463 + x_413 + x_363 + x_313 + x_263 + x_213 + x_163 + x_113
 + x_63 + x_13 = 1
 r_24: + x_464 + x_414 + x_364 + x_314 + x_264 + x_214 + x_164 + x_114
 + x_64 + x_14 = 1
 r_25: + x_465 + x_415 + x_365 + x_315 + x_265 + x_215 + x_165 + x_115
 + x_65 + x_15 = 1
 r_26: + x_466 + x_416 + x_366 + x_316 + x_266 + x_216 + x_166 + x_116
 + x_66 + x_16 = 1
 r_27: + x_467 + x_417 + x_367 + x_317 + x_267 + x_217 + x_167 + x_117
 + x_67 + x_17 = 1
 r_28: + x_468 + x_418 + x_368 + x_318 + x_268 + x_218 + x_168 + x_118
 + x_68 + x_18 = 1
 r_29: + x_469 + x_419 + x_369 + x_319 + x_269 + x_219 + x_169 + x_119
 + x_69 + x_19 = 1
 r_30: + x_470 + x_420 + x_370 + x_320 + x_270 + x_220 + x_170 + x_120
 + x_70 + x_20 = 1
 r_31: + x_471 + x_421 + x_371 + x_321 + x_271 + x_221 + x_171 + x_121
 + x_71 + x_21 = 1
 r_32: + x_472 + x_422 + x_372 + x_322 + x_272 + x_222 + x_172 + x_122
 + x_72 + x_22 = 1
 r_33: + x_473 + x_423 + x_373 + x_323 + x_273 + x_223 + x_173 + x_123
 + x_73 + x_23 = 1
 r_34: + x_474 + x_424 + x_374 + x_324 + x_274 + x_224 + x_174 + x_124
 + x_74 + x_24 = 1
 r_35: + x_475 + x_425 + x_375 + x_325 + x_275 + x_225 + x_175 + x_125
 + x_75 + x_25 = 1
 r_36: + x_476 + x_426 + x_376 + x_326 + x_276 + x_226 + x_176 + x_126
 + x_76 + x_26 = 1
 r_37: + x_477 + x_427 + x_377 + x_327 + x_277 + x_227 + x_177 + x_127
 + x_77 + x_27 = 1
 r_38: + x_478 + x_428 + x_378 + x_328 + x_278 + x_228 + x_178 + x_128
 + x_78 + x_28 = 1
 r_39: + x_479 + x_429 + x_379 + x_329 + x_279 + x_229 + x_179 + x_129
 + x_79 + x_29 = 1
 r_40: + x_480 + x_430 + x_380 + x_330 + x_280 + x_230 + x_180 + x_130
 + x_80 + x_30 = 1
 r_41: + x_481 + x_431 + x_381 + x_331 + x_281 + x_231 + x_181 + x_131
 + x_81 + x_31 = 1
 r_42: + x_482 + x_432 + x_382 + x_332 + x_282 + x_232 + x_182 + x_132
 + x_82 + x_32 = 1
 r_43: + x_483 + x_433 + x_383 + x_333 + x_283 + x_233 + x_183 + x_133
 + x_83 + x_33 = 1
 r_44: + x_484 + x_434 + x_384 + x_334 + x_284 + x_234 + x_184 + x_134
 + x_84 + x_34 = 1
 r_45: + x_485 + x_435 + x_385 + x_335 + x_285 + x_235 + x_185 + x_135
 + x_85 + x_35 = 1
 r_46: + x_486 + x_436 + x_386 + x_336 + x_286 + x_236 + x_186 + x_136
 + x_86 + x_36 = 1
 r_47: + x_487 + x_437 + x_387 + x_337 + x_287 + x_237 + x_187 + x_137
 + x_87 + x_37 = 1
 r_48: + x_488 + x_438 + x_388 + x_338 + x_288 + x_238 + x_188 + x_138
 + x_88 + x_38 = 1
 r_49: + x_489 + x_439 + x_389 + x_339 + x_289 + x_239 + x_189 + x_139
 + x_89 + x_39 = 1
 r_50: + x_490 + x_440 + x_390 + x_340 + x_290 + x_240 + x_190 + x_140
 + x_90 + x_40 = 1
 r_51: + x_491 + x_441 + x_391 + x_341 + x_291 + x_241 + x_191 + x_141
 + x_91 + x_41 = 1
 r_52: + x_492 + x_442 + x_392 + x_342 + x_292 + x_242 + x_192 + x_142
 + x_92 + x_42 = 1
 r_53: + x_493 + x_443 + x_393 + x_343 + x_293 + x_243 + x_193 + x_143
 + x_93 + x_43 = 1
 r_54: + x_494 + x_444 + x_394 + x_344 + x_294 + x_244 + x_194 + x_144
 + x_94 + x_44 = 1
 r_55: + x_495 + x_445 + x_395 + x_345 + x_295 + x_245 + x_195 + x_145
 + x_95 + x_45 = 1
 r_56: + x_496 + x_446 + x_396 + x_346 + x_296 + x_246 + x_196 + x_146
 + x_96 + x_46 = 1
 r_57: + x_497 + x_447 + x_397 + x_347 + x_297 + x_247 + x_197 + x_147
 + x_97 + x_47 = 1
 r_58: + x_498 + x_448 + x_398 + x_348 + x_298 + x_248 + x_198 + x_148
 + x_98 + x_48 = 1
 r_59: + x_499 + x_449 + x_399 + x_349 + x_299 + x_249 + x_199 + x_149
 + x_99 + x_49 = 1
 r_60: + x_500 + x_450 + x_400 + x_350 + x_300 + x_250 + x_200 + x_150
 + x_100 + x_50 = 1

Bounds
 0 <= x_1 <= 1
 0 <= x_2 <= 1
 0 <= x_3 <= 1
 0 <= x_4 <= 1
 0 <= x_5 <= 1
 0 <= x_6 <= 1
 0 <= x_7 <= 1
 0 <= x_8 <= 1
 0 <= x_9 <= 1
 0 <= x_10 <= 1
 0 <= x_11 <= 1
 0 <= x_12 <= 1
 0 <= x_13 <= 1
 0 <= x_14 <= 1
 0 <= x_15 <= 1
 0 <= x_16 <= 1
 0 <= x_17 <= 1
 0 <= x_18 <= 1
 0 <= x_19 <= 1
 0 <= x_20 <= 1
 0 <= x_21 <= 1
 0 <= x_22 <= 1
 0 <= x_23 <= 1
 0 <= x_24 <= 1
 0 <= x_25 <= 1
 0 <= x_26 <= 1
 0 <= x_27 <= 1
 0 <= x_28 <= 1
 0 <= x_29 <= 1
 0 <= x_30 <= 1
 0 <= x_31 <= 1
 0 <= x_32 <= 1
 0 <= x_33 <= 1
 0 <= x_34 <= 1
 0 <= x_35 <= 1
 0 <= x_36 <= 1
 0 <= x_37 <= 1
 0 <= x_38 <= 1
 0 <= x_39 <= 1
 0 <= x_40 <= 1
 0 <= x_41 <= 1
 0 <= x_42 <= 1
 0 <= x_43 <= 1
 0 <= x_44 <= 1
 0 <= x_45 <= 1
 0 <= x_46 <= 1
 0 <= x_47 <= 1
 0 <= x_48 <= 1
 0 <= x_49 <= 1
 0 <= x_50 <= 1
 0 <= x_51 <= 1
 0 <= x_52 <= 1
 0 <= x_53 <= 1
 0 <= x_54 <= 1
 0 <= x_55 <= 1
 0 <= x_56 <= 1
 0 <= x_57 <= 1
 0 <= x_58 <= 1
 0 <= x_59 <= 1
 0 <= x_60 <= 1
 0 <= x_61 <= 1
 0 <= x_62 <= 1
 0 <= x_63 <= 1
 0 <= x_64 <= 1
 0 <= x_65 <= 1
 0 <= x_66 <= 1
 0 <= x_67 <= 1
 0 <= x_68 <= 1
 0 <= x_69 <= 1
 0 <= x_70 <= 1
 0 <= x_71 <= 1
 0 <= x_72 <= 1
 0 <= x_73 <= 1
 0 <= x_74 <= 1
 0 <= x_75 <= 1
 0 <= x_76 <= 1
 0 <= x_77 <= 1
 0 <= x_78 <= 1
 0 <= x_79 <= 1
 0 <= x_80 <= 1
 0 <= x_81 <= 1
 0 <= x_82 <= 1
 0 <= x_83 <= 1
 0 <= x_84 <= 1
 0 <= x_85 <= 1
 0 <= x_86 <= 1
 0 <= x_87 <= 1
 0 <= x_88 <= 1
 0 <= x_89 <= 1
 0 <= x_90 <= 1
 0 <= x_91 <= 1
 0 <= x_92 <= 1
 0 <= x_93 <= 1
 0 <= x_94 <= 1
 0 <= x_95 <= 1
 0 <= x_96 <= 1
 0 <= x_97 <= 1
 0 <= x_98 <= 1
 0 <= x_99 <= 1
 0 <= x_100 <= 1
 0 <= x_101 <= 1
 0 <= x_102 <= 1
 0 <= x_103 <= 1
 0 <= x_104 <= 1
 0 <= x_105 <= 1
 0 <= x_106 <= 1
 0 <= x_107 <= 1
 0 <= x_108 <= 1
 0 <= x_109 <= 1
 0 <= x_110 <= 1
 0 <= x_111 <= 1
 0 <= x_112 <= 1
 0 <= x_113 <= 1
 0 <= x_114 <= 1
 0 <= x_115 <= 1
 0 <= x_116 <= 1
 0 <= x_117 <= 1
 0 <= x_118 <= 1
 0 <= x_119 <= 1
 0 <= x_120 <= 1
 0 <= x_121 <= 1
 0 <= x_122 <= 1
 0 <= x_123 <= 1
 0 <= x_124 <= 1
 0 <= x_125 <= 1
 0 <= x_126 <= 1
 0 <= x_127 <= 1
 0 <= x_128 <= 1
 0 <= x_129 <= 1
 0 <= x_130 <= 1
 0 <= x_131 <= 1
 0 <= x_132 <= 1
 0 <= x_133 <= 1
 0 <= x_134 <= 1
 0 <= x_135 <= 1
 0 <= x_136 <= 1
 0 <= x_137 <= 1
 0 <= x_138 <= 1
 0 <= x_139 <= 1
 0 <= x_140 <= 1
 0 <= x_141 <= 1
 0 <= x_142 <= 1
 0 <= x_143 <= 1
 0 <= x_144 <= 1
 0 <= x_145 <= 1
 0 <= x_146 <= 1
 0 <= x_147 <= 1
 0 <= x_148 <= 1
 0 <= x_149 <= 1
 0 <= x_150 <= 1
 0 <= x_151 <= 1
 0 <= x_152 <= 1
 0 <= x_153 <= 1
 0 <= x_154 <= 1
 0 <= x_155 <= 1
 0 <= x_156 <= 1
 0 <= x_157 <= 1
 0 <= x_158 <= 1
 0 <= x_159 <= 1
 0 <= x_160 <= 1
 0 <= x_161 <= 1
 0 <= x_162 <= 1
 0 <= x_163 <= 1
 0 <= x_164 <= 1
 0 <= x_165 <= 1
 0 <= x_166 <= 1
 0 <= x_167 <= 1
 0 <= x_168 <= 1
 0 <= x_169 <= 1
 0 <= x_170 <= 1
 0 <= x_171 <= 1
 0 <= x_172 <= 1
 0 <= x_173 <= 1
 0 <= x_174 <= 1
 0 <= x_175 <= 1
 0 <= x_176 <= 1
 0 <= x_177 <= 1
 0 <= x_178 <= 1
 0 <= x_179 <= 1
 0 <= x_180 <= 1
 0 <= x_181 <= 1
 0 <= x_182 <= 1
 0 <= x_183 <= 1
 0 <= x_184 <= 1
 0 <= x_185 <= 1
 0 <= x_186 <= 1
 0 <= x_187 <= 1
 0 <= x_188 <= 1
 0 <= x_189 <= 1
 0 <= x_190 <= 1
 0 <= x_191 <= 1
 0 <= x_192 <= 1
 0 <= x_193 <= 1
 0 <= x_194 <= 1
 0 <= x_195 <= 1
 0 <= x_196 <= 1
 0 <= x_197 <= 1
 0 <= x_198 <= 1
 0 <= x_199 <= 1
 0 <= x_200 <= 1
 0 <= x_201 <= 1
 0 <= x_202 <= 1
 0 <= x_203 <= 1
 0 <= x_204 <= 1
 0 <= x_205 <= 1
 0 <= x_206 <= 1
 0 <= x_207 <= 1
 0 <= x_208 <= 1
 0 <= x_209 <= 1
 0 <= x_210 <= 1
 0 <= x_211 <= 1
 0 <= x_212 <= 1
 0 <= x_213 <= 1
 0 <= x_214 <= 1
 0 <= x_215 <= 1
 0 <= x_216 <= 1
 0 <= x_217 <= 1
 0 <= x_218 <= 1
 0 <= x_219 <= 1
 0 <= x_220 <= 1
 0 <= x_221 <= 1
 0 <= x_222 <= 1
 0 <= x_223 <= 1
 0 <= x_224 <= 1
 0 <= x_225 <= 1
 0 <= x_226 <= 1
 0 <= x_227 <= 1
 0 <= x_228 <= 1
 0 <= x_229 <= 1
 0 <= x_230 <= 1
 0 <= x_231 <= 1
 0 <= x_232 <= 1
 0 <= x_233 <= 1
 0 <= x_234 <= 1
 0 <= x_235 <= 1
 0 <= x_236 <= 1
 0 <= x_237 <= 1
 0 <= x_238 <= 1
 0 <= x_239 <= 1
 0 <= x_240 <= 1
 0 <= x_241 <= 1
 0 <= x_242 <= 1
 0 <= x_243 <= 1
 0 <= x_244 <= 1
 0 <= x_245 <= 1
 0 <= x_246 <= 1
 0 <= x_247 <= 1
 0 <= x_248 <= 1
 0 <= x_249 <= 1
 0 <= x_250 <= 1
 0 <= x_251 <= 1
 0 <= x_252 <= 1
 0 <= x_253 <= 1
 0 <= x_254 <= 1
 0 <= x_255 <= 1
 0 <= x_256 <= 1
 0 <= x_257 <= 1
 0 <= x_258 <= 1
 0 <= x_259 <= 1
 0 <= x_260 <= 1
 0 <= x_261 <= 1
 0 <= x_262 <= 1
 0 <= x_263 <= 1
 0 <= x_264 <= 1
 0 <= x_265 <= 1
 0 <= x_266 <= 1
 0 <= x_267 <= 1
 0 <= x_268 <= 1
 0 <= x_269 <= 1
 0 <= x_270 <= 1
 0 <= x_271 <= 1
 0 <= x_272 <= 1
 0 <= x_273 <= 1
 0 <= x_274 <= 1
 0 <= x_275 <= 1
 0 <= x_276 <= 1
 0 <= x_277 <= 1
 0 <= x_278 <= 1
 0 <= x_279 <= 1
 0 <= x_280 <= 1
 0 <= x_281 <= 1
 0 <= x_282 <= 1
 0 <= x_283 <= 1
 0 <= x_284 <= 1
 0 <= x_285 <= 1
 0 <= x_286 <= 1
 0 <= x_287 <= 1
 0 <= x_288 <= 1
 0 <= x_289 <= 1
 0 <= x_290 <= 1
 0 <= x_291 <= 1
 0 <= x_292 <= 1
 0 <= x_293 <= 1
 0 <= x_294 <= 1
 0 <= x_295 <= 1
 0 <= x_296 <= 1
 0 <= x_297 <= 1
 0 <= x_298 <= 1
 0 <= x_299 <= 1
 0 <= x_300 <= 1
 0 <= x_301 <= 1
 0 <= x_302 <= 1
 0 <= x_303 <= 1
 0 <= x_304 <= 1
 0 <= x_305 <= 1
 0 <= x_306 <= 1
 0 <= x_307 <= 1
 0 <= x_308 <= 1
 0 <= x_309 <= 1
 0 <= x_310 <= 1
 0 <= x_311 <= 1
 0 <= x_312 <= 1
 0 <= x_313 <= 1
 0 <= x_314 <= 1
 0 <= x_315 <= 1
 0 <= x_316 <= 1
 0 <= x_317 <= 1
 0 <= x_318 <= 1
 0 <= x_319 <= 1
 0 <= x_320 <= 1
 0 <= x_321 <= 1
 0 <= x_322 <= 1
 0 <= x_323 <= 1
 0 <= x_324 <= 1
 0 <= x_325 <= 1
 0 <= x_326 <= 1
 0 <= x_327 <= 1
 0 <= x_328 <= 1
 0 <= x_329 <= 1
 0 <= x_330 <= 1
 0 <= x_331 <= 1
 0 <= x_332 <= 1
 0 <= x_333 <= 1
 0 <= x_334 <= 1
 0 <= x_335 <= 1
 0 <= x_336 <= 1
 0 <= x_337 <= 1
 0 <= x_338 <= 1
 0 <= x_339 <= 1
 0 <= x_340 <= 1
 0 <= x_341 <= 1
 0 <= x_342 <= 1
 0 <= x_343 <= 1
 0 <= x_344 <= 1
 0 <= x_345 <= 1
 0 <= x_346 <= 1
 0 <= x_347 <= 1
 0 <= x_348 <= 1
 0 <= x_349 <= 1
 0 <= x_350 <= 1
 0 <= x_351 <= 1
 0 <= x_352 <= 1
 0 <= x_353 <= 1
 0 <= x_354 <= 1
 0 <= x_355 <= 1
 0 <= x_356 <= 1
 0 <= x_357 <= 1
 0 <= x_358 <= 1
 0 <= x_359 <= 1
 0 <= x_360 <= 1
 0 <= x_361 <= 1
 0 <= x_362 <= 1
 0 <= x_363 <= 1
 0 <= x_364 <= 1
 0 <= x_365 <= 1
 0 <= x_366 <= 1
 0 <= x_367 <= 1
 0 <= x_368 <= 1
 0 <= x_369 <= 1
 0 <= x_370 <= 1
 0 <= x_371 <= 1
 0 <= x_372 <= 1
 0 <= x_373 <= 1
 0 <= x_374 <= 1
 0 <= x_375 <= 1
 0 <= x_376 <= 1
 0 <= x_377 <= 1
 0 <= x_378 <= 1
 0 <= x_379 <= 1
 0 <= x_380 <= 1
 0 <= x_381 <= 1
 0 <= x_382 <= 1
 0 <= x_383 <= 1
 0 <= x_384 <= 1
 0 <= x_385 <= 1
 0 <= x_386 <= 1
 0 <= x_387 <= 1
 0 <= x_388 <= 1
 0 <= x_389 <= 1
 0 <= x_390 <= 1
 0 <= x_391 <= 1
 0 <= x_392 <= 1
 0 <= x_393 <= 1
 0 <= x_394 <= 1
 0 <= x_395 <= 1
 0 <= x_396 <= 1
 0 <= x_397 <= 1
 0 <= x_398 <= 1
 0 <= x_399 <= 1
 0 <= x_400 <= 1
 0 <= x_401 <= 1
 0 <= x_402 <= 1
 0 <= x_403 <= 1
 0 <= x_404 <= 1
 0 <= x_405 <= 1
 0 <= x_406 <= 1
 0 <= x_407 <= 1
 0 <= x_408 <= 1
 0 <= x_409 <= 1
 0 <= x_410 <= 1
 0 <= x_411 <= 1
 0 <= x_412 <= 1
 0 <= x_413 <= 1
 0 <= x_414 <= 1
 0 <= x_415 <= 1
 0 <= x_416 <= 1
 0 <= x_417 <= 1
 0 <= x_418 <= 1
 0 <= x_419 <= 1
 0 <= x_420 <= 1
 0 <= x_421 <= 1
 0 <= x_422 <= 1
 0 <= x_423 <= 1
 0 <= x_424 <= 1
 0 <= x_425 <= 1
 0 <= x_426 <= 1
 0 <= x_427 <= 1
 0 <= x_428 <= 1
 0 <= x_429 <= 1
 0 <= x_430 <= 1
 0 <= x_431 <= 1
 0 <= x_432 <= 1
 0 <= x_433 <= 1
 0 <= x_434 <= 1
 0 <= x_435 <= 1
 0 <= x_436 <= 1
 0 <= x_437 <= 1
 0 <= x_438 <= 1
 0 <= x_439 <= 1
 0 <= x_440 <= 1
 0 <= x_441 <= 1
 0 <= x_442 <= 1
 0 <= x_443 <= 1
 0 <= x_444 <= 1
 0 <= x_445 <= 1
 0 <= x_446 <= 1
 0 <= x_447 <= 1
 0 <= x_448 <= 1
 0 <= x_449 <= 1
 0 <= x_450 <= 1
 0 <= x_451 <= 1
 0 <= x_452 <= 1
 0 <= x_453 <= 1
 0 <= x_454 <= 1
 0 <= x_455 <= 1
 0 <= x_456 <= 1
 0 <= x_457 <= 1
 0 <= x_458 <= 1
 0 <= x_459 <= 1
 0 <= x_460 <= 1
 0 <= x_461 <= 1
 0 <= x_462 <= 1
 0 <= x_463 <= 1
 0 <= x_464 <= 1
 0 <= x_465 <= 1
 0 <= x_466 <= 1
 0 <= x_467 <= 1
 0 <= x_468 <= 1
 0 <= x_469 <= 1
 0 <= x_470 <= 1
 0 <= x_471 <= 1
 0 <= x_472 <= 1
 0 <= x_473 <= 1
 0 <= x_474 <= 1
 0 <= x_475 <= 1
 0 <= x_476 <= 1
 0 <= x_477 <= 1
 0 <= x_478 <= 1
 0 <= x_479 <= 1
 0 <= x_480 <= 1
 0 <= x_481 <= 1
 0 <= x_482 <= 1
 0 <= x_483 <= 1
 0 <= x_484 <= 1
 0 <= x_485 <= 1
 0 <= x_486 <= 1
 0 <= x_487 <= 1
 0 <= x_488 <= 1
 0 <= x_489 <= 1
 0 <= x_490 <= 1
 0 <= x_491 <= 1
 0 <= x_492 <= 1
 0 <= x_493 <= 1
 0 <= x_494 <= 1
 0 <= x_495 <= 1
 0 <= x_496 <= 1
 0 <= x_497 <= 1
 0 <= x_498 <= 1
 0 <= x_499 <= 1
 0 <= x_500 <= 1
 0 <= x_501 <= 1
 0 <= x_502 <= 1
 0 <= x_503 <= 1
 0 <= x_504 <= 1
 0 <= x_505 <= 1
 0 <= x_506 <= 1
 0 <= x_507 <= 1
 0 <= x_508 <= 1
 0 <= x_509 <= 1
 0 <= x_510 <= 1

Generals
 x_1
 x_2
 x_3
 x_4
 x_5
 x_6
 x_7
 x_8
 x_9
 x_10
 x_11
 x_12
 x_13
 x_14
 x_15
 x_16
 x_17
 x_18
 x_19
 x_20
 x_21
 x_22
 x_23
 x_24
 x_25
 x_26
 x_27
 x_28
 x_29
 x_30
 x_31
 x_32
 x_33
 x_34
 x_35
 x_36
 x_37
 x_38
 x_39
 x_40
 x_41
 x_42
 x_43
 x_44
 x_45
 x_46
 x_47
 x_48
 x_49
 x_50
 x_51
 x_52
 x_53
 x_54
 x_55
 x_56
 x_57
 x_58
 x_59
 x_60
 x_61
 x_62
 x_63
 x_64
 x_65
 x_66
 x_67
 x_68
 x_69
 x_70
 x_71
 x_72
 x_73
 x_74
 x_75
 x_76
 x_77
 x_78
 x_79
 x_80
 x_81
 x_82
 x_83
 x_84
 x_85
 x_86
 x_87
 x_88
 x_89
 x_90
 x_91
 x_92
 x_93
 x_94
 x_95
 x_96
 x_97
 x_98
 x_99
 x_100
 x_101
 x_102
 x_103
 x_104
 x_105
 x_106
 x_107
 x_108
 x_109
 x_110
 x_111
 x_112
 x_113
 x_114
 x_115
 x_116
 x_117
 x_118
 x_119
 x_120
 x_121
 x_122
 x_123
 x_124
 x_125
 x_126
 x_127
 x_128
 x_129
 x_130
 x_131
 x_132
 x_133
 x_134
 x_135
 x_136
 x_137
 x_138
 x_139
 x_140
 x_141
 x_142
 x_143
 x_144
 x_145
 x_146
 x_147
 x_148
 x_149
 x_150
 x_151
 x_152
 x_153
 x_154
 x_155
 x_156
 x_157
 x_158
 x_159
 x_160
 x_161
 x_162
 x_163
 x_164
 x_165
 x_166
 x_167
 x_168
 x_169
 x_170
 x_171
 x_172
 x_173
 x_174
 x_175
 x_176
 x_177
 x_178
 x_179
 x_180
 x_181
 x_182
 x_183
 x_184
 x_185
 x_186
 x_187
 x_188
 x_189
 x_190
 x_191
 x_192
 x_193
 x_194
 x_195
 x_196
 x_197
 x_198
 x_199
 x_200
 x_201
 x_202
 x_203
 x_204
 x_205
 x_206
 x_207
 x_208
 x_209
 x_210
 x_211
 x_212
 x_213
 x_214
 x_215
 x_216
 x_217
 x_218
 x_219
 x_220
 x_221
 x_222
 x_223
 x_224
 x_225
 x_226
 x_227
 x_228
 x_229
 x_230
 x_231
 x_232
 x_233
 x_234
 x_235
 x_236
 x_237
 x_238
 x_239
 x_240
 x_241
 x_242
 x_243
 x_244
 x_245
 x_246
 x_247
 x_248
 x_249
 x_250
 x_251
 x_252
 x_253
 x_254
 x_255
 x_256
 x_257
 x_258
 x_259
 x_260
 x_261
 x_262
 x_263
 x_264
 x_265
 x_266
 x_267
 x_268
 x_269
 x_270
 x_271
 x_272
 x_273
 x_274
 x_275
 x_276
 x_277
 x_278
 x_279
 x_280
 x_281
 x_282
 x_283
 x_284
 x_285
 x_286
 x_287
 x_288
 x_289
 x_290
 x_291
 x_292
 x_293
 x_294
 x_295
 x_296
 x_297
 x_298
 x_299
 x_300
 x_301
 x_302
 x_303
 x_304
 x_305
 x_306
 x_307
 x_308
 x_309
 x_310
 x_311
 x_312
 x_313
 x_314
 x_315
 x_316
 x_317
 x_318
 x_319
 x_320
 x_321
 x_322
 x_323
 x_324
 x_325
 x_326
 x_327
 x_328
 x_329
 x_330
 x_331
 x_332
 x_333
 x_334
 x_335
 x_336
 x_337
 x_338
 x_339
 x_340
 x_341
 x_342
 x_343
 x_344
 x_345
 x_346
 x_347
 x_348
 x_349
 x_350
 x_351
 x_352
 x_353
 x_354
 x_355
 x_356
 x_357
 x_358
 x_359
 x_360
 x_361
 x_362
 x_363
 x_364
 x_365
 x_366
 x_367
 x_368
 x_369
 x_370
 x_371
 x_372
 x_373
 x_374
 x_375
 x_376
 x_377
 x_378
 x_379
 x_380
 x_381
 x_382
 x_383
 x_384
 x_385
 x_386
 x_387
 x_388
 x_389
 x_390
 x_391
 x_392
 x_393
 x_394
 x_395
 x_396
 x_397
 x_398
 x_399
 x_400
 x_401
 x_402
 x_403
 x_404
 x_405
 x_406
 x_407
 x_408
 x_409
 x_410
 x_411
 x_412
 x_413
 x_414
 x_415
 x_416
 x_417
 x_418
 x_419
 x_420
 x_421
 x_422
 x_423
 x_424
 x_425
 x_426
 x_427
 x_428
 x_429
 x_430
 x_431
 x_432
 x_433
 x_434
 x_435
 x_436
 x_437
 x_438
 x_439
 x_440
 x_441
 x_442
 x_443
 x_444
 x_445
 x_446
 x_447
 x_448
 x_449
 x_450
 x_451
 x_452
 x_453
 x_454
 x_455
 x_456
 x_457
 x_458
 x_459
 x_460
 x_461
 x_462
 x_463
 x_464
 x_465
 x_466
 x_467
 x_468
 x_469
 x_470
 x_471
 x_472
 x_473
 x_474
 x_475
 x_476
 x_477
 x_478
 x_479
 x_480
 x_481
 x_482
 x_483
 x_484
 x_485
 x_486
 x_487
 x_488
 x_489
 x_490
 x_491
 x_492
 x_493
 x_494
 x_495
 x_496
 x_497
 x_498
 x_499
 x_500
 x_501
 x_502
 x_503
 x_504
 x_505
 x_506
 x_507
 x_508
 x_509
 x_510

End
